%mem=60GB
%chk=opt.chk
%nprocshared=16
#P b3lyp/6-31g*
opt
SCF=XQC

Gaussian input prepared by ASE

0 1
C                -3.1386433449       -0.2528477429        1.8758442264
C                -2.5824076308        0.1118465556        0.4876191678
C                -3.7251000707        0.5145243561       -0.4623033974
C                -1.8833888664       -1.1033759315       -0.0912286729
C                -2.5889939180       -2.2864132409       -0.2614838623
C                -2.0035104547       -3.4217631499       -0.7909246064
C                -0.6729552854       -3.3870285743       -1.1647193297
C                 0.0508185803       -2.2232239569       -1.0102555558
C                -0.5414103317       -1.0763420826       -0.4782447040
N                 0.2070059407        0.0843603662       -0.3471307390
C                 1.5338350740        0.0952437783       -0.8232654703
C                 1.8227653744        0.4615656764       -2.1282418352
C                 0.7887400540        0.8344120102       -3.0158270095
N                -0.0448713106        1.1378381123       -3.7407702406
C                 3.1738055180        0.4568924965       -2.5610558576
N                 4.1721591650        0.1263867886       -1.8013885440
C                 3.9255948424       -0.2354172801       -0.5253844506
C                 4.9935881240       -0.5993889257        0.3216362801
C                 4.7149695166       -0.9620869305        1.6112261983
C                 3.3749449919       -0.9594391129        2.0470738701
N                 2.3650674709       -0.6299350249        1.2945398930
C                 2.6125027786       -0.2691891569        0.0217391056
C                -0.3086605584        1.2390345861        0.2232757492
C                 0.5113681686        2.3583036852        0.3778662407
C                 0.0217479522        3.5238515649        0.9291547839
C                -1.2987296403        3.5893669381        1.3333238910
C                -2.1098910519        2.4796801752        1.1825584661
C                -1.6424882297        1.2930873462        0.6348589918
H                -2.3215751649       -0.5352825006        2.5369136806
H                -3.8318770535       -1.0865618863        1.8104754077
H                -3.6634225464        0.5890985858        2.3181772184
H                -3.3191651312        0.7697526900       -1.4393601723
H                -4.4311991254       -0.3020298907       -0.5862272953
H                -4.2624177927        1.3770257365       -0.0774984129
H                -3.6296564781       -2.3285555417        0.0221360473
H                -2.5828721945       -4.3243730676       -0.9107850665
H                -0.1954281390       -4.2624960307       -1.5788076533
H                 1.0906028525       -2.2051089765       -1.3037553440
H                 3.4108848963        0.7411223906       -3.5778637648
H                 5.9971450078       -0.5801837393       -0.0747093936
H                 5.4996948895       -1.2479177894        2.2943104907
H                 3.1288957714       -1.2422334503        3.0621202662
H                 1.5450008966        2.3152308815        0.0658251506
H                 0.6731395777        4.3779855206        1.0391035532
H                -1.6961553035        4.4966526845        1.7618290230
H                -3.1394568204        2.5479310576        1.4996246761


