%mem=60GB
%chk=opt.chk
%nprocshared=16
#P b3lyp/6-31g*
opt
SCF=XQC

Gaussian input prepared by ASE

0 1
C                -1.6006470057       -2.6606233129       -0.0969077146
N                -1.2168033348       -1.2768289505       -0.0605456247
C                -2.0677811099       -0.1869205960       -0.0621069542
C                -3.4518970895       -0.1614514981       -0.1007454549
C                -4.0737203436        1.0757806025       -0.0932996015
C                -3.3438158100        2.2605028531       -0.0487657930
C                -1.9623336517        2.2440479825       -0.0101153149
C                -1.3194507495        1.0141546469       -0.0168048325
C                 0.0602394355        0.6208670645        0.0139773286
N                 1.1685276635        1.3100394915        0.0588751217
C                 2.3022549360        0.5720803166        0.0758700928
C                 3.5478485735        1.2250864243        0.1239463286
C                 4.6818326913        0.4560918201        0.1403366558
Cl                6.2461077139        1.1817573440        0.1988119553
C                 4.5702596864       -0.9489987780        0.1090312257
N                 3.4316787821       -1.5748877641        0.0645108832
C                 2.2924783653       -0.8622468062        0.0467770662
N                 1.1421802043       -1.5632602027        0.0002889375
C                 0.0599479963       -0.8269337667       -0.0152310216
H                -2.1627417227       -2.8787737027       -1.0074417422
H                -0.6878526467       -3.2529612438       -0.0809348333
H                -2.2147896240       -2.9109588467        0.7707188753
H                -4.0287426167       -1.0725201013       -0.1354198534
H                -5.1521966092        1.1219066793       -0.1228759751
H                -3.8689349212        3.2034443289       -0.0445886843
H                -1.3850239068        3.1540889748        0.0245904402
H                 3.5745686909        2.3033255152        0.1464078991
H                 5.4588074030       -1.5658074745        0.1216375900


