! XTB2 Opt
* xyz 0 1
C     -1.694952   -2.714052   -0.108065
N     -1.280287   -1.317245   -0.011554
C     -2.071944   -0.212696   -0.025121
C     -3.466485   -0.158189   -0.089658
C     -4.078584    1.109543   -0.100690
C     -3.298628    2.287285   -0.052143
C     -1.895340    2.214261    0.006599
C     -1.316880    0.948602    0.019360
C     -0.007907    0.537793    0.051965
N      1.141920    1.252500    0.077917
C      2.321656    0.561303    0.083078
C      3.543964    1.234563    0.112415
C      4.736041    0.503779    0.114718
Cl     6.279934    1.335404    0.151728
C      4.690586   -0.895583    0.086916
N      3.495222   -1.544748    0.057777
C      2.317700   -0.866877    0.055166
N      1.133052   -1.548472    0.024398
C     -0.018656   -0.832353    0.025826
H     -2.056971   -2.923864   -1.136161
H     -0.845257   -3.390861    0.122263
H     -2.510290   -2.916274    0.617761
H     -4.064362   -1.059052   -0.131430
H     -5.157246    1.182831   -0.148807
H     -3.785030    3.253953   -0.063459
H     -1.289000    3.110301    0.037796
H      3.569651    2.317211    0.133187
H      5.608094   -1.469062    0.088215
*
