%mem=60GB
%chk=opt.chk
%nprocshared=16
#P b3lyp/6-31g*
opt
SCF=XQC

Gaussian input prepared by ASE

0 1
C                -1.7440769001        2.5614065622        0.4745618017
N                -1.2870651655        1.2074741793        0.3266947653
C                -2.0804661220        0.0809112471        0.2029981250
C                -3.4617179553       -0.0150683382        0.1887393844
C                -4.0179954665       -1.2758059322        0.0507032670
C                -3.2268179931       -2.4148941941       -0.0704826250
C                -1.8474773985       -2.3279175945       -0.0573042330
C                -1.2701695661       -1.0733503660        0.0801386787
C                 0.0873019060       -0.6121155265        0.1335674902
N                 1.2300282005       -1.2392861139        0.0684573064
C                 2.3232348497       -0.4472727007        0.1571004053
C                 3.6016642871       -1.0313070682        0.0970668082
C                 4.6902200957       -0.2062056584        0.1892958298
Br                6.4534243502       -0.9116183368        0.1173497225
C                 4.5106436629        1.1815540514        0.3393096769
N                 3.3397888660        1.7420199958        0.3970746155
C                 2.2389402357        0.9764068121        0.3111967824
N                 1.0534318207        1.6136286273        0.3771134524
C                 0.0109916515        0.8267933324        0.2892220052
H                -2.3471802084        2.6653037583        1.3789639376
H                -2.3409836526        2.8606239197       -0.3895204519
H                -0.8640592864        3.1974198886        0.5478688919
H                -4.0857622041        0.8600200083        0.2818056328
H                -5.0929719695       -1.3768018407        0.0367602508
H                -3.7019022304       -3.3781583745       -0.1761398774
H                -1.2230325420       -3.2020351254       -0.1502293942
H                 3.6853254788       -2.1010969381       -0.0186253523
H                 5.3666812558        1.8393737258        0.4128571036


