%mem=60GB
%chk=opt.chk
%nprocshared=16
#P b3lyp/6-31g*
opt
SCF=XQC

Gaussian input prepared by ASE

0 1
C                -6.6620075140       -2.6881447109        0.2358579241
C                -5.2767395058       -2.1191734929        0.1711020047
C                -4.2480974950       -2.8142957130       -0.4520103200
C                -2.9664761985       -2.3011903137       -0.4942039133
C                -2.6669780761       -1.0709496200        0.0871894832
C                -1.3009927501       -0.5215468490        0.0412531426
C                -1.1317613402        0.8350373273       -0.2185619865
C                 0.0686328148        1.5184642818       -0.3038585513
C                 0.1440126581        2.9618943070       -0.5085068772
C                -0.8065767395        3.8169183451        0.0537056987
C                -0.7159776139        5.1841858405       -0.1165705041
C                 0.3278333261        5.7328618303       -0.8443998832
C                 1.2760968151        4.8972597477       -1.4095273472
C                 1.1843464312        3.5279621064       -1.2445920236
P                 1.5420556299        0.6213631533       -0.0539880502
O                 2.7069038433        0.6489414229       -1.2131966615
C                 3.9431079945        1.1808977053       -0.8081977158
C                 3.7023127368        1.8940590460        0.5464601487
O                 2.4678684950        1.4332132946        1.0352446478
C                 1.1156275734       -1.0396988608        0.2600328417
C                 2.1795003856       -2.0252989654        0.4268653890
C                 2.0537971633       -3.3131231193       -0.0987574056
C                 3.0741389394       -4.2337940646        0.0353034523
C                 4.2468021043       -3.8912003405        0.6892880577
C                 4.3845190028       -2.6187934278        1.2173638215
C                 3.3623206204       -1.6972895194        1.0887512509
C                -0.2262485553       -1.3783321217        0.2596470629
C                -3.7007337873       -0.3763887136        0.7116573776
C                -4.9811623928       -0.8926154545        0.7522265762
H                -6.8615273435       -3.3227898663       -0.6248151059
H                -6.7750752041       -3.2952716077        1.1351936063
H                -7.4061664290       -1.8954584468        0.2702533592
H                -4.4566663345       -3.7683721441       -0.9164259389
H                -2.1897023844       -2.8517171186       -1.0053632746
H                -2.0275315027        1.4150114338       -0.4034642432
H                -1.6095322864        3.4022839006        0.6446861279
H                -1.4597292562        5.8295373824        0.3283281914
H                 0.4004002210        6.8028617660       -0.9709009343
H                 2.0885960232        5.3153869102       -1.9874043869
H                 1.9038320641        2.8823177201       -1.7256496159
H                 4.6633057654        0.3636804474       -0.6983973764
H                 4.3011403391        1.8803048551       -1.5686759955
H                 4.4880080433        1.6544712312        1.2682462040
H                 3.6496853845        2.9795338503        0.4138266290
H                 1.1550634025       -3.5826858669       -0.6330984636
H                 2.9593082115       -5.2245358799       -0.3804326435
H                 5.0459340075       -4.6108805611        0.7874556968
H                 5.2918360418       -2.3452724205        1.7378182582
H                 3.4617095233       -0.7221847088        1.5416738204
H                -0.4596244767       -2.4121182668        0.4825612338
H                -3.4937817360        0.5710031423        1.1884945157
H                -5.7656106395       -0.3363298728        1.2468326959


