! XTB2 Opt
* xyz 0 1
C     -6.653813   -2.691228    0.249012
C     -5.277133   -2.102582    0.158755
C     -4.260483   -2.784356   -0.525442
C     -2.967722   -2.255244   -0.578691
C     -2.667617   -1.040166    0.061406
C     -1.291769   -0.483237    0.006813
C     -1.122716    0.824552   -0.282645
C      0.188373    1.503094   -0.376757
C      0.234702    2.971251   -0.559245
C     -0.547785    3.803492    0.260668
C     -0.508268    5.191976    0.101775
C      0.307132    5.761861   -0.878818
C      1.081298    4.943836   -1.705112
C      1.044785    3.554776   -1.550417
P      1.558482    0.668752   -0.098523
O      2.615410    0.744216   -1.402950
C      3.820265    1.121943   -0.797150
C      3.548546    1.890985    0.507962
O      2.424240    1.369196    1.160828
C      1.135124   -1.034636    0.253592
C      2.209415   -2.034695    0.456756
C      2.199527   -3.242610   -0.265309
C      3.220337   -4.181252   -0.087648
C      4.258204   -3.925481    0.811411
C      4.275428   -2.731703    1.536408
C      3.256557   -1.790160    1.362557
C     -0.152343   -1.406279    0.266385
C     -3.686081   -0.369603    0.762837
C     -4.978137   -0.900322    0.815718
H     -6.885387   -3.287370   -0.659314
H     -6.715753   -3.350032    1.140180
H     -7.417766   -1.889543    0.337049
H     -4.468972   -3.724571   -1.021041
H     -2.204381   -2.789875   -1.130428
H     -1.998615    1.430269   -0.485969
H     -1.177795    3.378807    1.032684
H     -1.108735    5.826438    0.740807
H      0.336523    6.836910   -1.000606
H      1.706786    5.386015   -2.469781
H      1.635257    2.940341   -2.215687
H      4.419157    0.210166   -0.579959
H      4.400868    1.759934   -1.496293
H      4.431003    1.819154    1.178076
H      3.370478    2.965281    0.281868
H      1.410033   -3.451661   -0.976788
H      3.208253   -5.105980   -0.649974
H      5.047899   -4.652970    0.947695
H      5.076942   -2.537101    2.237261
H      3.279898   -0.883363    1.950114
H     -0.387827   -2.439127    0.496252
H     -3.477075    0.556179    1.284697
H     -5.744753   -0.374278    1.371301
*
