%mem=60GB
%chk=opt.chk
%nprocshared=16
#P b3lyp/6-31g*
opt
SCF=XQC

Gaussian input prepared by ASE

0 1
C                 1.4693578680       -2.6874402620        0.4448502553
N                 1.1383724242       -1.3140435140        0.1839337469
C                 2.0261319048       -0.2865792547       -0.0612718290
C                 3.4110296823       -0.3208815050       -0.1126497759
C                 4.0819544982        0.8588280730       -0.3790104860
C                 3.3842550538        2.0469912412       -0.5893608238
Cl                4.2811287147        3.4898121327       -0.9182700891
C                 2.0031240359        2.1032243261       -0.5424647317
C                 1.3230939126        0.9242678592       -0.2759007034
C                -0.0705798441        0.6008626337       -0.1516695801
N                -1.1524379571        1.3251629317       -0.2519263090
C                -2.3117845111        0.6541271497       -0.0675250689
C                -3.5355436001        1.3462170775       -0.1553260991
C                -4.7000686291        0.6529457810        0.0337939406
C                -4.6274758977       -0.7251953747        0.3086367009
N                -3.5165598827       -1.4009660545        0.3978992352
C                -2.3551007595       -0.7512043630        0.2177667138
N                -1.2293314334       -1.4884791909        0.3189535584
C                -0.1230356008       -0.8152255387        0.1362792723
H                 2.0832944428       -2.7700163841        1.3441025908
H                 2.0114658330       -3.1184697012       -0.3993838981
H                 0.5344921528       -3.2251473696        0.5908413104
H                 3.9566806826       -1.2368629158        0.0491770847
H                 5.1594849531        0.8668462662       -0.4259910008
H                 1.4667108387        3.0233327182       -0.7055464666
H                -3.5143946429        2.4042573217       -0.3696869217
H                -5.6605100791        1.1412434945       -0.0240395808
H                -5.5337541601       -1.2976085783        0.4623919547


