%mem=60GB
%chk=opt.chk
%nprocshared=16
#P b3lyp/6-31g*
opt
SCF=XQC

Gaussian input prepared by ASE

0 1
C                 6.0874121651        1.1957488186       -0.9836495748
C                 6.1075768258       -0.0506891277       -0.3781339403
C                 4.9262586866       -0.6610158915       -0.0053496788
C                 3.7052826120       -0.0274001800       -0.2356176464
C                 2.4545002829       -0.6398303775        0.1426397612
N                 1.2958492492       -0.1096812389       -0.0412458646
C                 0.2853118040       -0.8897538951        0.4032336174
C                 0.6841284026       -2.1041512933        0.9688959065
C                -0.2425886822       -3.0291247407        1.4785459433
C                -1.5674296917       -2.7251122643        1.4153875399
C                -2.0353241427       -1.5038044458        0.8507856272
C                -3.3904051481       -1.2004433603        0.7898813195
C                -3.8496589630       -0.0047751815        0.2372077558
C                -5.2295646793        0.3114529736        0.1716290959
C                -5.6522776709        1.4859991047       -0.3731019074
C                -4.7204324540        2.4126960346       -0.8839197479
C                -3.3855716385        2.1448390301       -0.8390046949
C                -2.9058186188        0.9347497600       -0.2806233249
C                -1.5446123730        0.6338587116       -0.2213138782
C                -1.0985709727       -0.5565921356        0.3296662053
S                 2.4086447858       -2.2346938103        0.9220146613
C                 3.6926842892        1.2293749230       -0.8466499991
C                 4.8776488924        1.8323412905       -1.2160847203
H                 7.0131683709        1.6700678101       -1.2738536331
H                 7.0487837650       -0.5481081146       -0.1962533285
H                 4.9416721338       -1.6330550455        0.4668837526
H                 0.1060461961       -3.9558370764        1.9073701309
H                -2.3003631508       -3.4191163209        1.8001861170
H                -4.1083369943       -1.9086058987        1.1806111908
H                -5.9396806574       -0.4023895070        0.5646237704
H                -6.7059731256        1.7196872189       -0.4193884768
H                -5.0792639748        3.3376952054       -1.3112553230
H                -2.6660216236        2.8506009608       -1.2286696141
H                -0.8172594713        1.3318816571       -0.6077111024
H                 2.7426175589        1.7094528647       -1.0195207976
H                 4.8615700125        2.8037345421       -1.6879611420


