! XTB2 Opt
* xyz 0 1
C      6.153127    1.207976   -0.993810
C      6.176722   -0.047983   -0.383907
C      4.981583   -0.667824   -0.005603
C      3.745789   -0.033317   -0.235326
C      2.472097   -0.677730    0.159968
N      1.257681   -0.105626   -0.040776
C      0.247562   -0.897144    0.409252
C      0.653963   -2.098104    0.967889
C     -0.247319   -3.026192    1.477430
C     -1.615467   -2.725934    1.418877
C     -2.060066   -1.508214    0.854524
C     -3.429967   -1.213283    0.798669
C     -3.873768   -0.005910    0.239302
C     -5.244958    0.291135    0.182503
C     -5.680413    1.495955   -0.376158
C     -4.754449    2.411905   -0.881372
C     -3.386619    2.129388   -0.831424
C     -2.934874    0.922850   -0.272974
C     -1.563745    0.632963   -0.219655
C     -1.117530   -0.574965    0.339827
S      2.326619   -2.194915    0.907900
C      3.735678    1.232503   -0.850899
C      4.933876    1.847385   -1.226983
H      7.079492    1.685622   -1.285676
H      7.122496   -0.542601   -0.203704
H      5.029741   -1.640905    0.465017
H      0.097404   -3.957125    1.908562
H     -2.326899   -3.441756    1.812925
H     -4.150658   -1.923164    1.190421
H     -5.978177   -0.406691    0.569182
H     -6.738478    1.720267   -0.417599
H     -5.097649    3.343343   -1.312847
H     -2.683678    2.852197   -1.228325
H     -0.848563    1.346881   -0.613009
H      2.802876    1.748115   -1.042153
H      4.916573    2.820899   -1.699794
*
