%OldChk=/home/junhkim/WORK/Review_DD/TADF-Design/data/td_dft/results/mol_1002/opt.chk
%nprocshared=16
%mem=60GB
# b3lyp/6-31g* TD=(Nstates=1,50-50) Geom=Check Guess=Read SCF=XQC

TD-DFT calculation

0 1

