%mem=60GB
%chk=opt.chk
%nprocshared=16
#P b3lyp/6-31g*
opt
SCF=XQC

Gaussian input prepared by ASE

0 1
C                 4.9950491987        0.4457652090       -0.3667717544
C                 5.1398583048       -0.1142883138        0.8647200150
S                 3.6341282800       -0.5249504690        1.5764575157
C                 2.7775960537        0.0697779914        0.1851728641
C                 1.3416764076        0.0306590662        0.0994747061
C                 0.5288395562       -0.4846014129        1.1201813908
N                -0.7807641761       -0.5153551014        1.0313500809
C                -1.3416765996       -0.0306537925       -0.0862247084
C                -2.7775963694       -0.0697704486       -0.1719218197
C                -3.6491326203       -0.5521366287        0.7704955654
C                -4.9950490122       -0.4457670942        0.3800184150
C                -5.1398565704        0.1142580722       -0.8514864262
S                -3.6341294483        0.5249737755       -1.5631992124
C                -0.5288398090        0.4846078668       -1.1069308440
N                 0.7807639596        0.5153608634       -1.0180998618
C                 3.6491317204        0.5521544730       -0.7572397945
H                 5.8224554559        0.7701997470       -0.9719978220
H                 6.0450432499       -0.3132423517        1.4035382560
H                 0.9579047552       -0.8813907498        2.0314844396
H                -3.3094700758       -0.9635155066        1.7028212352
H                -5.8224548902       -0.7702085716        0.9852412836
H                -6.0450398674        0.3131831379       -1.3903181277
H                -0.9579050982        0.8813984527       -2.0182333092
H                 3.3094685948        0.9635427857       -1.6895610872


