%mem=60GB
%chk=opt.chk
%nprocshared=16
#P b3lyp/6-31g*
opt
SCF=XQC

Gaussian input prepared by ASE

0 1
O                 4.4229284585        1.2088891682       -2.5713864502
S                 3.9495191542        1.6417341080       -1.2853001265
O                 4.2554247556        2.9876146997       -0.8846191114
C                 4.4029346818        0.4664876889       -0.0037177508
C                 5.6617017631        0.1485479693        0.4460802905
C                 5.7821616562       -0.8022760729        1.4523939584
C                 4.6512673262       -1.4079734766        1.9781278177
C                 3.3858466070       -1.0809309588        1.5169138235
C                 3.2546486245       -0.1292170070        0.5121839858
C                 2.0127057384        0.3417732374       -0.1010603382
C                 0.7242294341       -0.0626693585        0.2155139350
C                -0.3553644631        0.4867504858       -0.4757312061
N                -1.6630998597        0.0730237436       -0.1636778922
C                -2.6114105498        0.9934584306        0.2995554276
C                -2.2981269591        2.3246008045        0.5427870896
C                -3.2614983060        3.2079895182        1.0059411931
C                -4.5495003030        2.7739461437        1.2450813611
C                -4.8691369183        1.4401037606        1.0416250641
C                -3.9111638340        0.5545343268        0.5829879308
O                -4.2943069592       -0.7554936571        0.4436798099
C                -3.3530676872       -1.6475798141       -0.0027370775
C                -3.7575503870       -2.9621506539       -0.1464993463
C                -2.8754693618       -3.9181541929       -0.6269391448
C                -1.5951539240       -3.5439882070       -0.9805804311
C                -1.1836195233       -2.2275992314       -0.8355875558
C                -2.0436165124       -1.2649414018       -0.3223718111
C                -0.1443153854        1.4402153232       -1.4723992929
C                 1.1419992174        1.8551428188       -1.7812963605
C                 2.1971450525        1.2999109587       -1.0959547807
H                 6.5262068848        0.6322828189        0.0199445355
H                 6.7590768559       -1.0699719392        1.8244937864
H                 4.7565040828       -2.1465183731        2.7587846086
H                 2.5159739796       -1.5629622353        1.9355050201
H                 0.5411281806       -0.7902171544        0.9912740473
H                -1.2913387527        2.6752033731        0.3785221267
H                -2.9902776936        4.2375828435        1.1803710526
H                -5.3039602688        3.4581092534        1.5994682647
H                -5.8593898159        1.0623171888        1.2393980095
H                -4.7718655015       -3.2148344787        0.1175658350
H                -3.1990619467       -4.9413534332       -0.7330219950
H                -0.9032749026       -4.2703795868       -1.3779528943
H                -0.1864546909       -1.9475204423       -1.1371687859
H                -0.9920338370        1.8461537089       -2.0030754852
H                 1.3226588896        2.5903593022       -2.5491001372


