! XTB2 Opt
* xyz 0 1
O      4.540104    0.665972   -2.684589
S      3.971563    1.356340   -1.477469
O      4.282898    2.825780   -1.449164
C      4.386095    0.551852    0.015225
C      5.665575    0.398975    0.548011
C      5.809950   -0.281101    1.766371
C      4.681568   -0.795438    2.430718
C      3.399480   -0.633986    1.882335
C      3.266777    0.045955    0.666871
C      2.028210    0.323082   -0.075173
C      0.724282   -0.035251    0.279747
C     -0.335246    0.324681   -0.572470
N     -1.683547   -0.033589   -0.229434
C     -2.544073    0.917205    0.443971
C     -2.100403    2.210356    0.792766
C     -2.959649    3.100718    1.443224
C     -4.264892    2.715598    1.755110
C     -4.715306    1.437379    1.419348
C     -3.862356    0.539656    0.768948
O     -4.327453   -0.737267    0.445514
C     -3.520175   -1.676339   -0.200939
C     -4.039953   -2.940232   -0.499031
C     -3.248268   -3.889347   -1.148548
C     -1.934450   -3.578063   -1.503836
C     -1.406549   -2.317511   -1.209809
C     -2.194384   -1.350444   -0.550343
C     -0.076871    1.035375   -1.762316
C      1.235382    1.389279   -2.106288
C      2.273010    1.024123   -1.250315
H      6.530136    0.796557    0.032650
H      6.794278   -0.410669    2.197133
H      4.802612   -1.318810    3.370255
H      2.536057   -1.031962    2.398138
H      0.525787   -0.580924    1.192638
H     -1.094303    2.537787    0.568016
H     -2.612143    4.091386    1.706712
H     -4.927301    3.407597    2.258926
H     -5.727350    1.142191    1.665459
H     -5.058810   -3.185275   -0.227325
H     -3.653696   -4.866301   -1.378042
H     -1.323430   -4.314902   -2.009141
H     -0.386462   -2.106337   -1.501007
H     -0.894417    1.311017   -2.416178
H      1.437726    1.934887   -3.018648
*
