%mem=60GB
%chk=opt.chk
%nprocshared=16
#P b3lyp/6-31g*
opt
SCF=XQC

Gaussian input prepared by ASE

0 1
C                -1.4516820422       -2.7056646477        0.4471015072
N                -1.1289326928       -1.3215896340        0.2362059012
C                -2.0215807583       -0.2778255243        0.1197179548
C                -3.4070809645       -0.3019208116        0.1778167474
C                -4.0848043464        0.8943355626        0.0312239817
C                -3.3900762781        2.0845802934       -0.1684978314
Br               -4.3866685235        3.6979712331       -0.3628686737
C                -2.0106246297        2.1347874686       -0.2300449372
C                -1.3242604438        0.9391117382       -0.0839054888
C                 0.0711584266        0.6009637915       -0.0896293109
N                 1.1485730173        1.3239182843       -0.2364401407
C                 2.3115627637        0.6370571665       -0.1826048358
C                 3.5318809576        1.3255735677       -0.3300766805
C                 4.6998977614        0.6153430372       -0.2730346030
C                 4.6346737022       -0.7757637435       -0.0691794699
N                 3.5273616221       -1.4483713530        0.0715384827
C                 2.3623518950       -0.7823466386        0.0208615534
N                 1.2405934440       -1.5170505950        0.1712858832
C                 0.1306831041       -0.8281024204        0.1149903465
H                -1.9925161476       -2.8347729377        1.3869184631
H                -2.0634560670       -3.0863736598       -0.3734027890
H                -0.5133470870       -3.2554353364        0.4878768498
H                -3.9479851531       -1.2218992754        0.3323340717
H                -5.1630311303        0.9110655759        0.0713007542
H                -1.4796093592        3.0600326323       -0.3849722674
H                 3.5049589588        2.3939614601       -0.4837272896
H                 5.6578727867        1.0998867760       -0.3806958840
H                 5.5440881844       -1.3614710101       -0.0200902949


