%mem=60GB
%chk=opt.chk
%nprocshared=16
#P b3lyp/6-31g*
opt
SCF=XQC

Gaussian input prepared by ASE

0 1
O                -5.3562863868       -0.5973810778        1.6928706603
C                -4.3322457858       -0.3914113256        1.0656730351
C                -3.7517993818        0.9466847587        0.8827909428
C                -4.5311540322        2.0700937783        1.1648045585
C                -4.0662672540        3.3369358954        0.8957065548
C                -2.8204243025        3.4911062560        0.2977524930
C                -2.0272461654        2.3959016051        0.0288987949
C                -2.4608624771        1.1087801238        0.3585893743
N                -1.6688487350       -0.0099220911        0.1089559659
C                -0.2774859718        0.0484257834        0.0619307294
C                 0.4400960707        1.0089784054        0.7796920472
C                 1.8142902281        1.0565496997        0.7092553189
C                 2.5356362090        0.1520441970       -0.0769275169
C                 3.9992837609        0.2316575506       -0.1774401047
C                 4.6331475841       -0.0025717515       -1.3959423126
C                 6.0093679046        0.0746790805       -1.4979046988
C                 6.7744568761        0.3801680107       -0.3845418344
C                 6.1546120715        0.6093722879        0.8323663719
C                 4.7778347636        0.5391520649        0.9359523576
C                 1.8281543648       -0.8395857346       -0.7359475293
C                 0.4394447450       -0.9182745004       -0.6584636106
C                -0.2451895179       -2.0654899706       -1.2723202024
O                 0.2896061208       -2.8171376025       -2.0681364809
C                -1.6163856289       -2.2580389955       -0.7778621399
C                -2.2595887578       -3.4739088848       -0.9940069586
C                -3.5432411656       -3.6937435433       -0.5314015203
C                -4.2011711582       -2.6839486650        0.1448996739
C                -3.5962381009       -1.4474800145        0.3551442089
C                -2.2859334562       -1.2231311843       -0.1017447144
H                -5.5123029814        1.9024328309        1.5828403819
H                -4.6718796591        4.2016442205        1.1179064284
H                -2.4691082530        4.4760423503        0.0290371098
H                -1.0798555111        2.5311188978       -0.4699346407
H                -0.0836970941        1.7022848764        1.4199027471
H                 2.3421381792        1.8159816753        1.2664348006
H                 4.0394581975       -0.2277626840       -2.2695905363
H                 6.4876405131       -0.1036551961       -2.4497938379
H                 7.8497976387        0.4378433551       -0.4644065469
H                 6.7469540227        0.8417008030        1.7053794454
H                 4.3033283347        0.6994318376        1.8932428347
H                 2.3364050462       -1.6062590015       -1.3016295638
H                -1.7160997652       -4.2353786845       -1.5334610307
H                -4.0267441791       -4.6438655544       -0.6966443546
H                -5.2015959102       -2.8200578824        0.5280712992


